PROBLEM NAME: 	tsp225-TTP
KNAPSACK DATA TYPE: uncorrelated
DIMENSION:	225
NUMBER OF ITEMS: 	224
CAPACITY OF KNAPSACK: 	40493
MIN SPEED: 	0.1
MAX SPEED: 	1
RENTING RATIO: 	6.89
EDGE_WEIGHT_TYPE:	CEIL_2D
NODE_COORD_SECTION	(INDEX, X, Y): 
1	155.42	150.65
2	375.92	164.65
3	183.92	150.65
4	205.42	150.65
5	205.42	171.65
6	226.42	171.65
7	226.42	186.15
8	226.42	207.15
9	226.42	235.65
10	226.42	264.15
11	226.42	292.65
12	226.42	314.15
13	226.42	335.65
14	205.42	335.65
15	190.92	335.65
16	190.92	328.15
17	176.92	328.15
18	176.92	299.65
19	155.42	299.65
20	155.42	328.15
21	155.42	356.65
22	183.92	356.65
23	219.42	356.65
24	240.92	356.65
25	269.42	356.65
26	290.42	356.65
27	387.42	136.15
28	318.92	356.65
29	318.92	335.65
30	318.92	328.15
31	318.92	299.65
32	297.92	299.65
33	290.42	328.15
34	290.42	335.65
35	297.92	328.15
36	254.92	335.65
37	254.92	314.15
38	254.92	292.65
39	254.92	271.65
40	254.92	243.15
41	254.92	221.65
42	254.92	193.15
43	254.92	171.65
44	276.42	171.65
45	296.42	150.65
46	276.42	150.65
47	375.92	150.65
48	308.92	150.65
49	354.92	164.65
50	338.42	174.65
51	354.92	174.65
52	338.42	200.15
53	338.42	221.65
54	354.92	221.65
55	354.92	200.15
56	361.92	200.15
57	361.92	186.15
58	383.42	186.15
59	383.42	179.15
60	404.42	179.15
61	404.42	186.15
62	418.92	186.15
63	418.92	200.15
64	432.92	200.15
65	432.92	221.65
66	418.92	221.65
67	418.92	235.65
68	397.42	235.65
69	397.42	243.15
70	375.92	243.15
71	375.92	257.15
72	368.92	257.15
73	368.92	264.15
74	347.42	264.15
75	347.42	278.65
76	336.42	278.65
77	336.42	328.15
78	347.42	328.15
79	347.42	342.65
80	368.92	342.65
81	368.92	353.65
82	418.92	353.65
83	418.92	342.65
84	432.92	342.65
85	432.92	356.65
86	447.42	356.65
87	447.42	321.15
88	447.42	292.65
89	432.92	292.65
90	432.92	314.15
91	418.92	314.15
92	418.92	321.15
93	397.42	321.15
94	397.42	333.65
95	375.92	333.65
96	375.92	321.15
97	361.92	321.15
98	361.92	299.65
99	375.92	299.65
100	375.92	285.65
101	397.42	285.65
102	397.42	271.65
103	418.92	271.65
104	418.92	264.15
105	439.92	264.15
106	439.92	250.15
107	454.42	250.15
108	454.42	243.15
109	461.42	243.15
110	461.42	214.65
111	461.42	193.15
112	447.42	193.15
113	447.42	179.15
114	439.92	179.15
115	439.92	167.65
116	419.92	167.65
117	419.92	150.65
118	439.92	150.65
119	454.42	150.65
120	475.92	150.65
121	475.92	171.65
122	496.92	171.65
123	496.92	193.15
124	496.92	214.65
125	496.92	243.15
126	496.92	271.65
127	496.92	292.65
128	496.92	317.15
129	496.92	335.65
130	470.42	335.65
131	470.42	356.65
132	496.92	356.65
133	347.42	150.65
134	539.92	356.65
135	560.92	356.65
136	589.42	356.65
137	589.42	342.65
138	603.92	342.65
139	610.92	342.65
140	610.92	335.65
141	610.92	321.15
142	624.92	321.15
143	624.92	278.65
144	610.92	278.65
145	610.92	257.15
146	589.42	257.15
147	589.42	250.15
148	575.42	250.15
149	560.92	250.15
150	542.92	250.15
151	542.92	264.15
152	560.92	264.15
153	575.42	264.15
154	575.42	271.65
155	582.42	271.65
156	582.42	285.65
157	596.42	285.65
158	560.92	335.65
159	596.42	314.15
160	582.42	314.15
161	582.42	321.15
162	575.42	321.15
163	575.42	335.65
164	525.42	335.65
165	525.42	314.15
166	525.42	299.65
167	525.42	281.65
168	525.42	233.15
169	525.42	214.65
170	525.42	193.15
171	525.42	171.65
172	546.92	171.65
173	546.92	150.65
174	568.42	150.65
175	475.92	160.65
176	603.92	150.65
177	624.92	150.65
178	624.92	136.15
179	596.42	136.15
180	575.42	136.15
181	553.92	136.15
182	532.42	136.15
183	575.42	356.65
184	489.92	136.15
185	468.42	136.15
186	447.42	136.15
187	425.92	136.15
188	404.42	136.15
189	370.42	136.15
190	361.92	150.65
191	340.42	136.15
192	326.42	136.15
193	301.92	136.15
194	276.42	136.15
195	254.92	136.15
196	315.92	136.15
197	212.42	136.15
198	190.92	136.15
199	338.92	150.65
200	155.42	136.15
201	624.92	299.65
202	318.92	321.65
203	155.42	314.15
204	311.92	356.65
205	355.42	136.15
206	318.92	314.15
207	362.92	164.65
208	254.92	356.65
209	383.42	333.65
210	447.42	335.65
211	470.42	345.65
212	525.42	250.15
213	546.92	335.65
214	525.42	261.15
215	525.42	356.65
216	336.42	298.65
217	336.42	313.15
218	293.42	136.15
219	336.42	306.15
220	425.92	264.15
221	391.42	353.65
222	482.92	335.65
223	429.92	167.65
224	330.92	150.65
225	368.42	150.65
ITEMS SECTION	(INDEX, PROFIT, WEIGHT, ASSIGNED NODE NUMBER): 
1	119	1	2
2	187	896	3
3	997	367	4
4	22	690	5
5	347	613	6
6	522	874	7
7	730	122	8
8	705	486	9
9	232	823	10
10	554	463	11
11	675	589	12
12	970	325	13
13	407	1000	14
14	276	776	15
15	331	123	16
16	361	356	17
17	798	305	18
18	427	47	19
19	439	645	20
20	91	139	21
21	650	247	22
22	10	211	23
23	838	100	24
24	725	627	25
25	843	760	26
26	137	776	27
27	977	475	28
28	718	937	29
29	99	101	30
30	609	281	31
31	819	751	32
32	97	530	33
33	975	240	34
34	226	248	35
35	241	768	36
36	584	31	37
37	348	613	38
38	475	881	39
39	178	367	40
40	641	712	41
41	898	410	42
42	250	157	43
43	391	824	44
44	101	242	45
45	636	472	46
46	87	722	47
47	652	775	48
48	867	371	49
49	54	337	50
50	509	885	51
51	989	204	52
52	129	594	53
53	597	226	54
54	513	226	55
55	201	921	56
56	227	537	57
57	82	112	58
58	296	959	59
59	802	392	60
60	537	709	61
61	943	940	62
62	997	943	63
63	642	79	64
64	205	922	65
65	551	361	66
66	904	947	67
67	400	861	68
68	250	937	69
69	586	754	70
70	631	872	71
71	752	636	72
72	510	459	73
73	542	390	74
74	576	141	75
75	550	111	76
76	504	588	77
77	702	6	78
78	20	155	79
79	179	723	80
80	770	723	81
81	95	667	82
82	598	829	83
83	885	487	84
84	239	590	85
85	37	370	86
86	898	823	87
87	923	173	88
88	261	56	89
89	786	977	90
90	46	681	91
91	438	689	92
92	116	933	93
93	503	809	94
94	603	587	95
95	194	686	96
96	341	466	97
97	545	356	98
98	52	784	99
99	810	862	100
100	260	223	101
101	197	541	102
102	213	61	103
103	462	416	104
104	62	62	105
105	203	205	106
106	269	152	107
107	160	913	108
108	747	267	109
109	174	249	110
110	700	187	111
111	114	174	112
112	412	939	113
113	905	519	114
114	109	56	115
115	369	381	116
116	525	551	117
117	987	128	118
118	660	812	119
119	149	753	120
120	764	544	121
121	396	684	122
122	905	830	123
123	30	725	124
124	384	330	125
125	981	115	126
126	483	38	127
127	176	445	128
128	570	619	129
129	891	648	130
130	446	896	131
131	567	658	132
132	646	306	133
133	229	806	134
134	893	800	135
135	723	612	136
136	771	354	137
137	329	300	138
138	279	174	139
139	253	751	140
140	262	126	141
141	802	603	142
142	861	665	143
143	127	209	144
144	131	308	145
145	460	308	146
146	290	677	147
147	296	863	148
148	172	292	149
149	158	444	150
150	241	295	151
151	301	413	152
152	958	72	153
153	694	321	154
154	594	981	155
155	145	797	156
156	819	507	157
157	672	715	158
158	638	512	159
159	645	892	160
160	915	76	161
161	879	22	162
162	14	643	163
163	975	866	164
164	185	74	165
165	466	508	166
166	511	243	167
167	767	776	168
168	579	326	169
169	496	694	170
170	119	662	171
171	829	17	172
172	858	654	173
173	547	129	174
174	801	662	175
175	28	123	176
176	269	182	177
177	113	554	178
178	293	421	179
179	410	685	180
180	850	470	181
181	237	77	182
182	552	264	183
183	117	624	184
184	45	961	185
185	42	55	186
186	722	254	187
187	710	880	188
188	110	921	189
189	800	809	190
190	618	680	191
191	129	554	192
192	887	62	193
193	692	573	194
194	604	568	195
195	35	37	196
196	963	910	197
197	108	632	198
198	411	211	199
199	426	67	200
200	104	763	201
201	208	568	202
202	542	681	203
203	248	814	204
204	237	514	205
205	922	326	206
206	678	41	207
207	392	909	208
208	516	192	209
209	422	59	210
210	582	352	211
211	327	678	212
212	97	885	213
213	378	596	214
214	362	400	215
215	124	411	216
216	376	746	217
217	167	535	218
218	680	82	219
219	679	399	220
220	330	412	221
221	613	636	222
222	345	983	223
223	181	360	224
224	576	120	225
